s td 157 19 292
b 1 1 32 119 252
b 2 3 16 249
b 3 19 126 262 277
b 4 33 60 96
b 5 38 54 233
b 6 6 83 161 190
b 7 84 193 221 280
b 8 89 109 153 156 212 245 270 278
b 9 91 114 148 189
b 10 66 101 113
b 11 21 104 130 203
b 12 21 39 104 125 203 282
b 13 39 125 147 282
b 14 21 39 125 203 282
b 15 37 56 196
b 16 112 113 228
b 17 52 112 113
b 18 21 39 198 212
b 19 21 39 198
b 20 126 159 209 240
b 21 126 240 277
b 22 22 27 60 96
b 23 52 124 171 215 286
b 24 9 52 171 215 286
b 25 37 56 248 281
b 26 46 120 144 164 236
b 27 120 144 164 224 236
b 28 2 7 13 53 71 80 87 90 93 102 103 177 199 214 220 265 279 285 287
b 29 2 12 13 53 80 87 90 93 102 103 177 199 214 220 265 267 287
b 30 2 12 40 53 80 85 87 90 93 103 177 199 214 220 267 287
b 31 2 12 40 53 77 80 85 87 90 93 199 220 267 287
b 32 2 12 40 53 55 77 80 85 87 90 199 220 267 287
b 33 2 7 13 53 71 80 87 90 93 102 166 177 214 220 279 285 287
b 34 7 13 53 71 80 87 90 93 102 166 174 177 214 220 285 287
b 35 13 53 71 80 87 90 93 102 166 174 177 179 214 220 285 287
b 36 13 53 71 80 87 90 93 102 138 166 174 177 179 214 285 287
b 37 13 53 71 80 87 90 102 106 138 166 174 177 179 214 285 287
b 38 53 71 80 88 90 102 106 138 174 177 179 285 287
b 39 53 71 80 88 90 102 106 138 150 174 177 287
b 40 88 90 102 138 150 174 177 280 287
b 41 102 122 150 177 280 287
b 42 72 122 280 287
b 43 7 93 107 174 220
b 44 20 26 42 64 75 86 120 154 164 191 205 207 227 234 237 242 255 264 275
b 45 26 42 64 75 86 154 164 165 191 205 207 227 234 237 255 275
b 46 29 42 64 75 86 149 154 164 165 191 205 207 227 234 237 255
b 47 29 64 75 86 149 154 164 165 191 205 207 234 255 283
b 48 29 64 74 75 86 149 164 165 191 205 207 234 255 283
b 49 20 26 48 63 64 86 120 154 164 191 205 207 227 234 237 242 255 264
b 50 20 26 48 63 64 120 154 164 191 205 224 227 234 237 242 255
b 51 20 26 48 63 64 120 154 155 164 191 205 224 227 234 237 242
b 52 20 26 48 63 64 120 155 164 191 205 224 227 234 237 242 247
b 53 20 63 120 155 164 224 227 234 236 247
b 54 20 63 155 164 189 227 234 236 247
b 55 63 164 189 234 244 247
b 56 110 164 189 244
b 57 26 48 64 133 155 191 205 224 237 242 247
b 58 20 42 75 120 154 173 242 255 264 275
b 59 20 42 75 120 173 242 250 264 275
b 60 6 23 97 158 181 182 241 289 292
b 61 17 23 68 79 97 116 135 158 167 181 182 188 202 213 241 260 289 290 292
b 62 11 17 68 79 97 116 135 158 167 182 188 202 213 241 260 290 291 292
b 63 11 17 68 79 97 116 118 135 158 167 188 202 213 260 290 291 292
b 64 11 68 79 97 116 118 131 158 167 188 202 213 260 290 291 292
b 65 11 14 18 68 79 97 116 131 167 188 202 213 260 290 291 292
b 66 11 14 18 68 97 116 167 184 188 260 290 292
b 67 11 18 97 167 184 188 257 260 290
b 68 17 23 68 79 116 135 167 168 181 188 202 213 241 260 268 289 290
b 69 17 68 92 116 135 167 168 181 202 208 213 241 260 268 289 290
b 70 17 68 92 116 135 167 168 202 208 241 261 268 289 290
b 71 17 68 78 92 116 167 168 202 208 241 261 268 289 290
b 72 6 23 160 181 241 289 292
b 73 6 160 163 241
b 74 4 10 25 34 47 49 50 67 73 95 111 129 151 180 192 216 251 256 274
b 75 10 25 34 47 49 50 73 95 111 129 151 216 235 256 274 288
b 76 34 49 50 95 111 151 216 235 246 256 274 288
b 77 34 36 50 95 111 151 216 235 246
b 78 4 10 34 47 49 50 67 70 73 95 111 129 151 180 192 216 251 256
b 79 4 10 34 47 49 50 57 67 70 73 95 111 129 151 180 192 251 256
b 80 4 10 34 44 49 50 57 67 70 73 95 111 129 137 192 251 256
b 81 4 34 44 49 57 70 73 95 111 129 137 140 145 192 251 256
b 82 4 34 44 49 57 70 95 129 137 140 145 211 251 256
b 83 4 34 44 45 49 57 95 129 137 140 145 211 251 256
b 84 4 25 47 67 151 180 192 216 251 272 274
b 85 4 47 67 151 192 195 216 251 272 274
b 86 4 67 119 192 195 216 251 272 274
b 87 4 67 105 119 192 251 274
b 88 4 105 119 178
b 89 88 179 194 243 287
b 90 88 179 243 285 287
b 91 182 230 241 276 291
b 92 11 182 241 276 291
b 93 4 47 195 239 273
b 94 4 47 151 195 273
b 95 37 56 204 206 277 281
b 96 56 162 204 206 277 281
b 97 162 204 206 240 254 277 281
b 98 8 41 162 183 204 206 240 254 277
b 99 8 30 41 65 82 162 183 204 206 254 277
b 100 8 30 41 62 65 82 183 204 254
b 101 8 41 62 98 183
b 102 8 30 41 65 81 82 115 162 183 206 219 229 259 277 284
b 103 30 41 58 81 115 162 219 229 259 284
b 104 5 8 65 81 82 115 128 183 206 219 225 229 231 258 259 277 284
b 105 5 8 65 81 128 146 206 219 225 231 258 259
b 106 8 65 121 128 146 206 219 225 231 259
b 107 5 8 82 115 128 183 217 225 229 231 258 277 284
b 108 5 8 82 115 128 176 183 217 225 229 231 258 284
b 109 3 9 35 62 65 69 82 94 105 122 134 160 171 198 204 222 226 244 263
b 110 9 35 62 65 82 94 105 122 132 134 160 172 185 204 222 226 238 244 263
b 111 35 62 82 105 117 122 132 134 160 172 175 185 204 222 226 238 244 263
b 112 15 62 82 105 117 122 132 134 175 185 201 204 222 226 238 244 263
b 113 15 62 82 117 122 127 132 134 175 197 201 204 226 238 244 263
b 114 15 62 82 117 122 127 132 134 175 197 201 204 210 226
b 115 15 31 62 82 117 122 127 132 134 175 197 201 210 226
b 116 3 9 35 62 65 69 82 105 122 134 157 160 171 198 204 222 226 244 263
b 117 3 9 30 35 62 65 69 82 134 157 171 204 222 226 263
b 118 9 30 35 62 65 69 82 134 157 171 204 222 226 254 263
b 119 9 30 35 62 69 82 134 157 171 222 226 233 254 263
b 120 9 30 35 62 69 134 157 171 215 222 226 233 254 263
b 121 9 62 134 139 157 171 215 233 254
b 122 9 51 62 134 139 171 215 233
b 123 30 35 54 69 215 222 226 233 254 263
b 124 3 65 69 94 105 122 160 171 186 198 204 244
b 125 3 65 171 186 204 249
b 126 9 24 51 61 99 152 253 269
b 127 8 65 121 146 206 218 231 259
b 128 27 60 96 113 139 171
b 129 9 24 51 60 66 96 113 139 142 171 215
b 130 9 24 51 60 66 96 134 139 142 171 215
b 131 9 24 51 66 96 134 139 142 171 215
b 132 9 24 43 51 66 96 99 108 123 134 142 170 171 200 215
b 133 43 59 66 96 99 108 123 170 200 215
b 134 9 24 43 51 99 100 108 123 134 136 142 170 171 200 253 269
b 135 9 24 43 51 61 99 100 136 253 269
b 136 51 76 100 108 123 134 136 142 170 171 200 232 253 269
b 137 51 76 100 123 134 136 142 169 170 171 200 232 253
b 138 51 76 100 123 134 136 141 142 169 170 200 232 253
b 139 9 24 51 52 60 66 113 142 171 215
b 140 24 28 51 52 60 66 113 142
b 141 69 94 105 122 143 160 186 198 244
b 142 20 63 155 187 189 227 234 236 247
b 143 88 90 102 138 150 174 177 223 280
b 144 6 23 97 158 181 182 266 289 292
b 145 67 119 192 195 216 251 271 272 274
b 146 63 157 234 244 247
b 147 63 157 244 247 274
b 148 157 244 247 274 289
b 149 23 105 122 157 181 244 274 289
b 150 23 105 122 157 160 181 244 289
b 151 23 157 160 181 289 292
b 152 23 105 122 157 181 251 274
b 153 23 122 157 177 251
b 154 23 102 122 157 177
b 155 102 122 150 157 177
b 156 105 157 181 192 251 274
b 157 67 105 157 192 251 274
1 86
2 125
3 21
4 128
5 123
6 60
7 40
8 18
9 54
10 129
11 12
12 14
13 14
14 19
15 95
16 17
17 139
18 19
19 109
20 21
21 97
22 128
23 24
24 139
25 95
26 27
27 53
28 29
28 33
29 30
30 31
31 32
33 34
34 35
34 43
35 36
36 37
37 38
38 90
38 39
39 40
40 143
40 41
41 155
41 42
44 45
44 49
44 58
45 46
46 47
47 48
49 50
50 51
51 52
52 53
52 57
53 54
54 142
54 55
55 146
55 56
58 59
60 144
60 61
60 72
61 62
61 68
62 92
62 63
63 64
64 65
65 66
66 67
68 69
69 70
70 71
72 151
72 73
74 75
74 78
74 84
75 76
76 77
78 79
79 80
80 81
81 82
82 83
84 85
85 94
85 86
86 145
86 87
87 157
87 88
89 90
91 92
93 94
95 96
96 97
97 98
98 99
99 102
99 100
100 118
100 101
102 103
102 104
104 105
104 107
105 106
106 127
107 108
109 110
109 116
109 124
110 111
111 112
112 113
113 114
114 115
116 150
116 117
117 118
118 119
119 120
120 121
120 123
121 122
122 130
124 141
124 125
126 135
128 129
129 139
129 130
130 131
131 132
132 133
132 134
134 135
134 136
136 137
137 138
139 140
146 147
147 148
148 149
149 152
149 150
150 151
152 153
152 156
153 154
154 155
156 157
